param total_customers := 3 ;
set Likes[1] := cheese peppers ;
set Dislikes[1] :=  ;
set Likes[2] := basil ;
set Dislikes[2] := pineapple ;
set Likes[3] := mushrooms tomatoes ;
set Dislikes[3] := basil ;
set INGR :=
basil cheese mushrooms peppers pineapple tomatoes
;
